qViagens = 10;
qPontosCarga = 1;
qBetoneiras = 1;
M = 10000;
dp = [
[0],
[7],
[7],
[7],
[7],
[7],
[7],
[7],
[7],
[7]
];
dv = [
[0],
[12.7],
[35.6],
[19.2],
[34],
[17.1],
[15.4],
[24.7],
[22.4],
[37.4]
];
td = [0, 11.6, 17.6, 18.6, 16.4, 16, 13.1, 19, 17.6, 13.6];
tmaxvc = [0, 120, 120, 120, 120, 120, 120, 120, 120, 120];
hs = [0, 393.4, 960.3, 982.5, 468.8, 565, 468.3, 736.2, 1104.3, 717.7];
f = [
[0],
[78.5],
[73.1],
[80.8],
[77],
[81.3],
[86.8],
[89],
[69.1],
[68.3]
];
c = [
[0],
[68.5],
[63.1],
[70.8],
[67],
[71.3],
[76.8],
[79],
[49.1],
[58.3]
];
qvMax = [33];
cuve = [8.4];
pb = [
[1]
];
cnv = [1044.2, 1068.7, 1489, 1546.4, 1122.7, 1090, 1147.7, 1906.1, 1958.5, 1140.4];
